VRPTWMS/instances/mip/fuel/4/N4-C_DV100-C_SV30_F6_14_No_1.log

Gurobi 6.0.4 (win64) logging started 06/21/15 19:06:15

Read LP format model from file C:\MT\repository\VRPTWMS\instances\mip\fuel\N4-C_DV100-C_SV30_F6_14_No_1.lp
Reading time = 0.00 seconds
(null): 129 rows, 76 columns, 459 nonzeros
Optimize a model with 129 rows, 76 columns and 459 nonzeros
Model has 80 quadratic constraints
Coefficient statistics:
  Matrix range    [1e+00, 1e+06]
  Objective range [9e+04, 1e+07]
  Bounds range    [1e+00, 1e+06]
  RHS range       [1e+00, 1e+06]
Presolve removed 24 rows and 15 columns
Presolve time: 0.03s
Presolved: 236 rows, 131 columns, 991 nonzeros
Variable types: 61 continuous, 70 integer (48 binary)
Found heuristic solution: objective 4.132220e+07
Found heuristic solution: objective 2.109700e+07

Root relaxation: objective 1.111960e+07, 20 iterations, 0.00 seconds

    Nodes    |    Current Node    |     Objective Bounds      |     Work
 Expl Unexpl |  Obj  Depth IntInf | Incumbent    BestBd   Gap | It/Node Time

     0     0 1.1120e+07    0    1 2.1097e+07 1.1120e+07  47.3%     -    0s
     0     0 1.1120e+07    0    2 2.1097e+07 1.1120e+07  47.3%     -    0s
     0     0 1.1330e+07    0    6 2.1097e+07 1.1330e+07  46.3%     -    0s
H    0     0                    2.106990e+07 1.1330e+07  46.2%     -    0s
     0     0 1.1330e+07    0    9 2.1070e+07 1.1330e+07  46.2%     -    0s
     0     0 1.1330e+07    0    9 2.1070e+07 1.1330e+07  46.2%     -    0s
     0     0 1.1330e+07    0    9 2.1070e+07 1.1330e+07  46.2%     -    0s
     0     0 1.1330e+07    0    9 2.1070e+07 1.1330e+07  46.2%     -    0s
     0     0 1.1393e+07    0    9 2.1070e+07 1.1393e+07  45.9%     -    0s
     0     0 1.1426e+07    0   16 2.1070e+07 1.1426e+07  45.8%     -    0s
     0     0 1.1426e+07    0   18 2.1070e+07 1.1426e+07  45.8%     -    0s
     0     0 1.1426e+07    0   20 2.1070e+07 1.1426e+07  45.8%     -    0s
     0     0 1.1426e+07    0   18 2.1070e+07 1.1426e+07  45.8%     -    0s
     0     2 1.1426e+07    0   16 2.1070e+07 1.1426e+07  45.8%     -    0s

Cutting planes:
  Gomory: 3
  Cover: 7
  Implied bound: 9
  MIR: 2
  GUB cover: 1

Explored 16 nodes (460 simplex iterations) in 0.09 seconds
Thread count was 2 (of 4 available processors)

Optimal solution found (tolerance 1.00e-04)
Best objective 2.106990000000e+07, best bound 2.106990000000e+07, gap 0.0%
k_c1	100000.0
k_c2	50000.0
k_c3	160000.0
k_c4	1000000.0
k_dN	-0.0
o_1	0.0
o_2	0.0
o_3	0.0
o_4	0.0
p_1	0.0
p_2	0.0
p_3	0.0
p_4	0.0
phi_c1	8267.0
phi_c2	8697.0
phi_c3	22329.0
phi_c4	40586.0
phi_dN	0.0
pi_c1	0.0
pi_c2	0.0
pi_c3	0.0
pi_c4	0.0
pi_dN	-0.0
tauD_c1	370775.0
tauD_c2	514850.0
tauD_c3	178225.0
tauD_c4	100000.0
tauD_d0	-0.0
tauD_dN	1000000.0
tauS_c1	169500.0
tauS_c2	0.0
tauS_c3	237050.0
tauS_c4	0.0
tauS_d0	-0.0
tauS_dN	0.0
x_c1_dN	1.0
x_c2_dN	1.0
x_c3_c2	1.0
x_c4_c3	1.0
x_d0_c1	1.0
x_d0_c4	1.0
